benchmarks/VRPTW/TSPTW/solution/n80w20.002.txt.solution
1 39 65 31 37 23 62 12 74 32 19 22 17 6 4 14 59 3 54 49 20 10 7 33 9 45 58 2 53 57 30 24 52 25 67 21 42 44 36 75 38 41 8 28 50 56 27 43 77 5 51 16 64 18 72 35 80 48 46 73 26 13 79 34 47 71 76 60 70 40 29 15 55 69 68 61 11 66 63 81 78 
737
